(set-logic AUFLIRA)
(declare-const x Int)
(assert (= x (+ 1 (- 2.0))))
(declare-const res Bool)
(declare-const y Bool)
(declare-const z Bool)
(assert (= res (and y z)))
(check-sat)
(get-value (res))
(get-value (x))
(exit)